jobs  (incl. supersource/sink ):	52
RESOURCES
- renewable                 : 2 R
- nonrenewable              : 2 N
- doubly constrained        : 0 D
************************************************************************
PRECEDENCE RELATIONS:
jobnr.    #modes  #successors   successors
1	1	10		2 3 4 5 6 7 10 14 15 20 
2	3	9		29 25 21 19 18 16 12 9 8 
3	3	8		29 24 23 22 19 18 13 11 
4	3	4		19 18 13 9 
5	3	5		29 24 22 19 11 
6	3	5		28 22 21 13 11 
7	3	3		28 16 9 
8	3	4		32 24 23 13 
9	3	2		22 11 
10	3	2		18 13 
11	3	7		51 39 38 36 32 27 17 
12	3	7		51 39 38 36 32 27 17 
13	3	6		51 39 38 36 27 17 
14	3	6		39 38 36 32 29 17 
15	3	6		39 38 36 32 27 17 
16	3	7		51 50 49 40 32 26 22 
17	3	8		50 49 40 37 34 31 30 26 
18	3	7		51 50 49 33 32 30 27 
19	3	5		47 38 31 28 27 
20	3	11		50 49 48 47 46 39 38 37 35 34 33 
21	3	6		50 49 38 35 30 27 
22	3	8		47 46 39 38 37 36 34 33 
23	3	5		47 45 36 34 31 
24	3	5		47 45 44 34 31 
25	3	8		51 49 47 45 44 43 41 38 
26	3	6		48 47 46 43 42 33 
27	3	6		48 46 45 43 37 34 
28	3	5		49 44 39 37 34 
29	3	5		49 44 37 35 34 
30	3	5		47 46 45 44 41 
31	3	3		46 41 35 
32	3	2		45 35 
33	3	3		45 44 41 
34	3	2		42 41 
35	3	2		43 42 
36	3	2		48 41 
37	3	1		41 
38	3	1		42 
39	3	1		43 
40	3	1		44 
41	3	1		52 
42	3	1		52 
43	3	1		52 
44	3	1		52 
45	3	1		52 
46	3	1		52 
47	3	1		52 
48	3	1		52 
49	3	1		52 
50	3	1		52 
51	3	1		52 
52	1	0		
************************************************************************
REQUESTS/DURATIONS
jobnr.	mode	dur	R1	R2	N1	N2	
------------------------------------------------------------------------
1	1	0	0	0	0	0	
2	1	4	1	0	10	8	
	2	6	1	0	7	7	
	3	7	1	0	6	6	
3	1	2	0	6	5	7	
	2	9	0	4	5	7	
	3	10	1	0	3	4	
4	1	1	0	4	7	4	
	2	4	0	3	6	2	
	3	7	1	0	3	1	
5	1	4	0	7	5	6	
	2	4	6	0	5	5	
	3	8	4	0	4	4	
6	1	1	8	0	5	7	
	2	2	0	5	3	7	
	3	8	0	5	3	6	
7	1	8	9	0	2	7	
	2	9	0	2	2	7	
	3	10	5	0	2	6	
8	1	1	0	8	8	10	
	2	7	0	8	8	5	
	3	9	0	8	8	1	
9	1	8	0	8	5	7	
	2	10	5	0	2	4	
	3	10	0	5	1	2	
10	1	1	5	0	10	7	
	2	4	0	3	8	5	
	3	7	3	0	7	4	
11	1	1	0	7	1	4	
	2	3	8	0	1	2	
	3	4	4	0	1	1	
12	1	6	9	0	4	5	
	2	7	7	0	3	5	
	3	9	7	0	2	5	
13	1	5	5	0	4	8	
	2	6	0	7	3	7	
	3	9	0	7	2	7	
14	1	1	0	7	6	8	
	2	2	0	4	3	6	
	3	6	0	2	2	5	
15	1	2	3	0	8	7	
	2	4	0	3	7	5	
	3	6	1	0	6	4	
16	1	3	0	7	8	5	
	2	4	0	6	4	2	
	3	5	0	2	2	1	
17	1	2	1	0	7	8	
	2	8	1	0	7	7	
	3	9	1	0	7	6	
18	1	3	0	7	4	4	
	2	4	0	7	4	2	
	3	9	2	0	4	1	
19	1	8	0	5	2	6	
	2	9	0	5	2	4	
	3	10	5	0	2	4	
20	1	2	9	0	7	1	
	2	6	0	6	5	1	
	3	9	9	0	3	1	
21	1	2	6	0	3	8	
	2	5	0	6	3	5	
	3	10	4	0	3	3	
22	1	2	5	0	5	4	
	2	2	0	6	4	3	
	3	9	1	0	4	3	
23	1	1	8	0	9	9	
	2	2	8	0	7	9	
	3	8	7	0	3	8	
24	1	2	0	6	6	9	
	2	4	6	0	6	7	
	3	8	0	3	6	6	
25	1	6	0	10	9	9	
	2	9	0	10	7	5	
	3	10	10	0	6	4	
26	1	9	8	0	4	8	
	2	10	6	0	4	8	
	3	10	0	9	4	7	
27	1	3	5	0	4	2	
	2	5	5	0	3	2	
	3	10	0	6	2	2	
28	1	5	0	7	8	8	
	2	6	4	0	7	8	
	3	7	0	6	5	8	
29	1	2	0	5	7	8	
	2	5	0	4	6	5	
	3	9	1	0	3	4	
30	1	1	6	0	7	6	
	2	3	6	0	4	3	
	3	8	4	0	3	2	
31	1	3	0	5	4	9	
	2	9	0	4	4	7	
	3	9	1	0	4	6	
32	1	4	6	0	9	4	
	2	10	0	3	7	3	
	3	10	6	0	7	2	
33	1	1	9	0	2	10	
	2	8	0	9	1	10	
	3	9	0	8	1	10	
34	1	1	8	0	5	8	
	2	5	6	0	5	5	
	3	9	5	0	5	4	
35	1	4	0	10	10	8	
	2	8	2	0	8	8	
	3	9	2	0	8	7	
36	1	2	3	0	7	4	
	2	3	0	3	7	4	
	3	5	2	0	7	4	
37	1	1	8	0	4	5	
	2	3	8	0	3	5	
	3	9	7	0	2	2	
38	1	1	5	0	6	7	
	2	7	0	4	6	7	
	3	7	3	0	6	7	
39	1	5	10	0	9	10	
	2	5	0	3	9	5	
	3	6	0	2	8	1	
40	1	1	0	6	8	6	
	2	2	3	0	8	4	
	3	10	0	6	7	4	
41	1	3	0	9	7	8	
	2	7	6	0	7	7	
	3	9	2	0	5	5	
42	1	5	0	5	5	8	
	2	5	6	0	3	7	
	3	7	6	0	3	6	
43	1	3	0	8	8	7	
	2	5	4	0	8	5	
	3	6	4	0	8	4	
44	1	1	0	6	6	5	
	2	2	0	5	5	5	
	3	2	4	0	5	1	
45	1	1	0	9	8	9	
	2	1	1	0	8	6	
	3	5	0	4	7	2	
46	1	1	8	0	4	10	
	2	3	8	0	3	5	
	3	10	0	7	2	3	
47	1	5	0	7	8	5	
	2	7	5	0	6	3	
	3	9	5	0	2	3	
48	1	4	0	9	3	7	
	2	5	0	5	3	3	
	3	9	0	4	3	3	
49	1	2	9	0	9	8	
	2	2	0	3	6	7	
	3	4	0	3	5	7	
50	1	2	8	0	5	7	
	2	3	8	0	3	6	
	3	8	0	3	1	4	
51	1	3	5	0	8	8	
	2	10	0	7	7	7	
	3	10	3	0	7	5	
52	1	0	0	0	0	0	
************************************************************************

 RESOURCE AVAILABILITIES 
	R 1	R 2	N 1	N 2
	19	21	281	309

************************************************************************
